; aio-pika :: corpus-study/repo_src/aio-pika/aio_pika/robust_channel.py :: EVENT 'RobustChannel.__restored' :: structured encoding (verdict: unsat)
; Generated by snf-pipeline (encoder.py) -- run with any
; SMT-LIB2-compliant solver, e.g. `z3 aio-pika__corpus-study_repo_src_aio-pika_aio_pika_robust_channel.py__RobustChannel.__restored__structured.smt2`
; benchmark generated from python API
(set-info :status unknown)
(declare-fun ewake_0 () Bool)
(assert
 (= ewake_0 true))
(assert
 (let (($x24 (not ewake_0)))
(or $x24)))
(check-sat)
